certificates/rado_a13_c133_N31.cnf
c Rad2 upper bound instance: x1 + 13*x2 - x3 = 133, interval [1,31]
p cnf 31 148
1 11 0
-1 -11 0
1 12 24 0
-1 -12 -24 0
2 11 12 0
-2 -11 -12 0
2 12 25 0
-2 -12 -25 0
3 11 13 0
-3 -11 -13 0
3 12 26 0
-3 -12 -26 0
1 4 10 0
-1 -4 -10 0
4 11 14 0
-4 -11 -14 0
4 12 27 0
-4 -12 -27 0
2 5 10 0
-2 -5 -10 0
5 11 15 0
-5 -11 -15 0
5 12 28 0
-5 -12 -28 0
3 6 10 0
-3 -6 -10 0
6 11 16 0
-6 -11 -16 0
6 12 29 0
-6 -12 -29 0
4 7 10 0
-4 -7 -10 0
7 11 17 0
-7 -11 -17 0
7 12 30 0
-7 -12 -30 0
5 8 10 0
-5 -8 -10 0
8 11 18 0
-8 -11 -18 0
8 12 31 0
-8 -12 -31 0
6 9 10 0
-6 -9 -10 0
9 11 19 0
-9 -11 -19 0
7 10 0
-7 -10 0
10 11 20 0
-10 -11 -20 0
8 10 11 0
-8 -10 -11 0
11 21 0
-11 -21 0
9 10 12 0
-9 -10 -12 0
11 12 22 0
-11 -12 -22 0
10 13 0
-10 -13 0
11 13 23 0
-11 -13 -23 0
10 11 14 0
-10 -11 -14 0
11 14 24 0
-11 -14 -24 0
10 12 15 0
-10 -12 -15 0
11 15 25 0
-11 -15 -25 0
10 13 16 0
-10 -13 -16 0
11 16 26 0
-11 -16 -26 0
1 9 17 0
-1 -9 -17 0
10 14 17 0
-10 -14 -17 0
11 17 27 0
-11 -17 -27 0
2 9 18 0
-2 -9 -18 0
10 15 18 0
-10 -15 -18 0
11 18 28 0
-11 -18 -28 0
3 9 19 0
-3 -9 -19 0
10 16 19 0
-10 -16 -19 0
11 19 29 0
-11 -19 -29 0
4 9 20 0
-4 -9 -20 0
10 17 20 0
-10 -17 -20 0
11 20 30 0
-11 -20 -30 0
5 9 21 0
-5 -9 -21 0
10 18 21 0
-10 -18 -21 0
11 21 31 0
-11 -21 -31 0
6 9 22 0
-6 -9 -22 0
10 19 22 0
-10 -19 -22 0
7 9 23 0
-7 -9 -23 0
10 20 23 0
-10 -20 -23 0
8 9 24 0
-8 -9 -24 0
10 21 24 0
-10 -21 -24 0
9 25 0
-9 -25 0
10 22 25 0
-10 -22 -25 0
9 10 26 0
-9 -10 -26 0
10 23 26 0
-10 -23 -26 0
9 11 27 0
-9 -11 -27 0
10 24 27 0
-10 -24 -27 0
9 12 28 0
-9 -12 -28 0
10 25 28 0
-10 -25 -28 0
9 13 29 0
-9 -13 -29 0
10 26 29 0
-10 -26 -29 0
1 8 30 0
-1 -8 -30 0
9 14 30 0
-9 -14 -30 0
10 27 30 0
-10 -27 -30 0
2 8 31 0
-2 -8 -31 0
9 15 31 0
-9 -15 -31 0
10 28 31 0
-10 -28 -31 0
