certificates/rado_a13_c133_N31.drat
10 -29 -30 0
12 28 -10 0
-29 -30 -31 0
-12 29 -30 0
12 28 0
d 9 12 28 0
12 -31 0
-30 -31 0
d -29 -30 -31 0
30 8 0
d 1 30 8 0
-12 -31 0
d -12 -8 -31 0
-31 0
-10 -12 0
d -15 -10 -12 0
-12 0
28 0
10 0
8 0
-7 0
-13 0
-5 0
-11 0
-25 0
30 0
17 0
23 0
3 0
1 0
21 0
22 0
2 0
15 0
9 0
-27 0
0
